Version identifier: 12.10.0.0 | 2019-11-26 | 843d4de
CPXPARAM_WorkMem                                 28672
Tried aggregator 2 times.
MIP Presolve modified 44 coefficients.
Aggregator did 20 substitutions.
Reduced MIP has 94 rows, 120 columns, and 448 nonzeros.
Reduced MIP has 120 binaries, 0 generals, 0 SOSs, and 0 indicators.
Presolve time = 0,00 sec. (0,59 ticks)
Found incumbent of value 500,000000 after 0,00 sec. (0,96 ticks)
Probing time = 0,00 sec. (0,14 ticks)
Tried aggregator 1 time.
Detecting symmetries...
MIP Presolve eliminated 12 rows and 0 columns.
MIP Presolve added 24 rows and 0 columns.
Reduced MIP has 106 rows, 120 columns, and 460 nonzeros.
Reduced MIP has 120 binaries, 0 generals, 0 SOSs, and 0 indicators.
Presolve time = 0,00 sec. (0,55 ticks)
Probing time = 0,00 sec. (0,14 ticks)
Clique table members: 298.
MIP emphasis: balance optimality and feasibility.
MIP search method: dynamic search.
Parallel mode: deterministic, using up to 16 threads.
Root relaxation solution time = 0,00 sec. (0,58 ticks)

        Nodes                                         Cuts/
   Node  Left     Objective  IInf  Best Integer    Best Bound    ItCnt     Gap

*     0+    0                          500,0000        0,0000           100,00%
*     0+    0                          333,0000        0,0000           100,00%
*     0+    0                          324,0000        0,0000           100,00%
*     0+    0                          305,0000        0,0000           100,00%
*     0+    0                          297,0000        0,0000           100,00%
      0     0      156,3333    76      297,0000      156,3333       81   47,36%
      0     0      156,3333    76      297,0000      Cuts: 85      107   47,36%
*     0+    0                          293,0000      156,3333            46,64%
      0     0      156,3333    76      293,0000     Cuts: 126      174   46,64%
*     0+    0                          282,0000      156,3333            44,56%
      0     0      157,6567    76      282,0000     Cuts: 101      250   44,09%
      0     0      159,5005    76      282,0000      Cuts: 52      289   43,44%
      0     0      160,2457    76      282,0000      Cuts: 48      314   43,18%
      0     0      183,3734    76      282,0000      Cuts: 90      383   34,97%
*     0+    0                          275,0000      183,3734            33,32%
      0     0      185,9875    76      275,0000      Cuts: 52      405   32,37%
      0     0      187,2216    76      275,0000      Cuts: 35      426   31,92%
      0     0      188,7040    76      275,0000      Cuts: 36      451   31,38%
      0     0      190,0832    76      275,0000      Cuts: 51      497   30,88%
      0     0      190,9126    76      275,0000      Cuts: 42      521   30,58%
      0     0      191,7337    76      275,0000      Cuts: 60      554   30,28%
      0     0      192,6529    76      275,0000      Cuts: 44      591   29,94%
      0     0      194,4686    76      275,0000      Cuts: 27      631   29,28%
      0     0      195,0158    76      275,0000      Cuts: 37      669   29,09%
*     0+    0                          268,0000      195,0158            27,23%
      0     0      195,8968    76      268,0000      Cuts: 31      692   26,90%
      0     0      196,1292    76      268,0000      Cuts: 18      706   26,82%
      0     0      196,5710    76      268,0000      Cuts: 30      733   26,65%
      0     0      197,0433    76      268,0000      Cuts: 38      765   26,48%
      0     0      197,4310    76      268,0000      Cuts: 28      791   26,33%
      0     0      197,7430    76      268,0000      Cuts: 47      821   26,22%
      0     0      197,9652    76      268,0000      Cuts: 11      839   26,13%
      0     0      198,1792    76      268,0000      Cuts: 26      861   26,05%
      0     0      198,3478    76      268,0000      Cuts: 24      881   25,99%
      0     0      198,5485    76      268,0000      Cuts: 29      909   25,91%
      0     0      198,6434    76      268,0000      Cuts: 13      929   25,88%
      0     0      198,7340    76      268,0000      Cuts: 23      947   25,85%
      0     0      198,9176    76      268,0000      Cuts: 23      974   25,78%
      0     0      199,0153    76      268,0000      Cuts: 25      999   25,74%
      0     0      199,1801    76      268,0000      Cuts: 24     1024   25,68%
*     0+    0                          267,0000      199,1801            25,40%
      0     0      199,3922    76      267,0000      Cuts: 23     1043   25,32%
      0     0      199,4623    76      267,0000      Cuts: 26     1065   25,30%
      0     0      199,5316    76      267,0000      Cuts: 22     1087   25,27%
      0     0      199,5556    76      267,0000      Cuts: 24     1102   25,26%
      0     2      199,5556   104      267,0000      209,0000     1102   21,72%
Elapsed time = 0,30 sec. (129,55 ticks, tree = 0,02 MB, solutions = 10)

Clique cuts applied:  16
Cover cuts applied:  70
Flow cuts applied:  3
Mixed integer rounding cuts applied:  13
Zero-half cuts applied:  38
Gomory fractional cuts applied:  2

Root node processing (before b&c):
  Real time             =    0,30 sec. (129,32 ticks)
Parallel b&c, 16 threads:
  Real time             =    0,04 sec. (19,45 ticks)
  Sync time (average)   =    0,03 sec.
  Wait time (average)   =    0,00 sec.
                          ------------
Total (root+branch&cut) =    0,34 sec. (148,76 ticks)
